NAME
ROWS
 N  OBJ
 G  c1
 G  c2
 G  c3
 G  c4
 G  c5
 G  c6
 G  c7
 G  c8
 G  c9
 G  c10
 G  c11
 G  c12
 G  c13
 G  c14
 G  c15
 G  c16
 G  c17
 G  c18
 G  c19
 G  c20
 G  c21
 G  c22
 G  c23
 G  c24
 G  c25
 G  c26
 G  c27
 G  c28
 G  c29
 G  c30
 G  c31
 G  c32
 G  c33
 G  c34
 G  c35
 G  c36
 G  c37
 G  c38
 G  c39
 G  c40
 G  c41
 G  c42
 G  c43
 G  c44
 G  c45
 G  c46
 G  c47
 G  c48
 G  c49
 G  c50
 G  c51
 G  c52
 G  c53
 G  c54
 G  c55
 G  c56
 G  c57
 G  c58
 G  c59
 G  c60
 G  c61
 G  c62
 G  c63
 G  c64
 G  c65
 G  c66
 G  c67
 G  c68
 G  c69
 G  c70
 G  c71
 G  c72
 G  c73
 G  c74
 G  c75
 G  c76
 G  c77
 G  c78
 G  c79
 G  c80
 G  c81
 G  c82
 G  c83
 G  c84
 G  c85
 G  c86
 G  c87
 G  c88
 G  c89
 G  c90
COLUMNS
    MARKER    'MARKER'                 'INTORG'
    x[1]      c1        1
    x[1]      c9        1
    x[1]      c10       1
    x[1]      c11       1
    x[1]      c20       1
    x[1]      c49       1
    x[1]      c63       1
    x[1]      c76       1
    x[1]      c84       1
    x[1]      c87       1
    x[1]      c89       1
    x[1]      OBJ       1
    x[2]      c2        1
    x[2]      c3        1
    x[2]      c6        1
    x[2]      c12       1
    x[2]      c31       1
    x[2]      c50       1
    x[2]      c74       1
    x[2]      c82       1
    x[2]      OBJ       1
    x[3]      c2        1
    x[3]      c3        1
    x[3]      c42       1
    x[3]      c83       1
    x[3]      c89       1
    x[3]      c90       1
    x[3]      OBJ       1
    x[4]      c4        1
    x[4]      c10       1
    x[4]      c18       1
    x[4]      c25       1
    x[4]      c35       1
    x[4]      c50       1
    x[4]      c60       1
    x[4]      c61       1
    x[4]      c62       1
    x[4]      c64       1
    x[4]      c71       1
    x[4]      c75       1
    x[4]      c85       1
    x[4]      OBJ       1
    x[5]      c5        1
    x[5]      c9        1
    x[5]      c13       1
    x[5]      c18       1
    x[5]      c22       1
    x[5]      c40       1
    x[5]      c49       1
    x[5]      c51       1
    x[5]      c59       1
    x[5]      c63       1
    x[5]      c66       1
    x[5]      c86       1
    x[5]      c88       1
    x[5]      OBJ       1
    x[6]      c2        1
    x[6]      c6        1
    x[6]      c13       1
    x[6]      c30       1
    x[6]      c31       1
    x[6]      c41       1
    x[6]      c44       1
    x[6]      c68       1
    x[6]      c80       1
    x[6]      c82       1
    x[6]      OBJ       1
    x[7]      c7        1
    x[7]      c15       1
    x[7]      c16       1
    x[7]      c78       1
    x[7]      OBJ       1
    x[8]      c8        1
    x[8]      c16       1
    x[8]      c26       1
    x[8]      c44       1
    x[8]      c46       1
    x[8]      c52       1
    x[8]      c61       1
    x[8]      c62       1
    x[8]      c66       1
    x[8]      c70       1
    x[8]      c79       1
    x[8]      OBJ       1
    x[9]      c1        1
    x[9]      c5        1
    x[9]      c9        1
    x[9]      c30       1
    x[9]      OBJ       1
    x[10]     c1        1
    x[10]     c4        1
    x[10]     c10       1
    x[10]     c31       1
    x[10]     c55       1
    x[10]     c59       1
    x[10]     c68       1
    x[10]     c69       1
    x[10]     c76       1
    x[10]     OBJ       1
    x[11]     c1        1
    x[11]     c11       1
    x[11]     c12       1
    x[11]     c18       1
    x[11]     c22       1
    x[11]     c30       1
    x[11]     c40       1
    x[11]     c55       1
    x[11]     c61       1
    x[11]     c73       1
    x[11]     c78       1
    x[11]     OBJ       1
    x[12]     c2        1
    x[12]     c11       1
    x[12]     c12       1
    x[12]     c15       1
    x[12]     c22       1
    x[12]     c26       1
    x[12]     c38       1
    x[12]     c44       1
    x[12]     c52       1
    x[12]     c57       1
    x[12]     c61       1
    x[12]     c69       1
    x[12]     c78       1
    x[12]     c84       1
    x[12]     OBJ       1
    x[13]     c5        1
    x[13]     c6        1
    x[13]     c13       1
    x[13]     c16       1
    x[13]     c43       1
    x[13]     c45       1
    x[13]     c46       1
    x[13]     c50       1
    x[13]     c64       1
    x[13]     c65       1
    x[13]     c66       1
    x[13]     c80       1
    x[13]     OBJ       1
    x[14]     c14       1
    x[14]     c19       1
    x[14]     c31       1
    x[14]     c51       1
    x[14]     c56       1
    x[14]     c67       1
    x[14]     c88       1
    x[14]     OBJ       1
    x[15]     c7        1
    x[15]     c12       1
    x[15]     c15       1
    x[15]     c22       1
    x[15]     c29       1
    x[15]     c43       1
    x[15]     c61       1
    x[15]     c63       1
    x[15]     c72       1
    x[15]     c78       1
    x[15]     c80       1
    x[15]     c85       1
    x[15]     OBJ       1
    x[16]     c7        1
    x[16]     c8        1
    x[16]     c13       1
    x[16]     c16       1
    x[16]     c28       1
    x[16]     c39       1
    x[16]     c41       1
    x[16]     c48       1
    x[16]     c67       1
    x[16]     OBJ       1
    x[17]     c17       1
    x[17]     c21       1
    x[17]     c27       1
    x[17]     c37       1
    x[17]     c38       1
    x[17]     c42       1
    x[17]     c49       1
    x[17]     c77       1
    x[17]     c84       1
    x[17]     OBJ       1
    x[18]     c4        1
    x[18]     c5        1
    x[18]     c11       1
    x[18]     c18       1
    x[18]     c51       1
    x[18]     c57       1
    x[18]     c64       1
    x[18]     c72       1
    x[18]     c76       1
    x[18]     OBJ       1
    x[19]     c14       1
    x[19]     c19       1
    x[19]     c31       1
    x[19]     c36       1
    x[19]     c40       1
    x[19]     c41       1
    x[19]     c45       1
    x[19]     c64       1
    x[19]     OBJ       1
    x[20]     c1        1
    x[20]     c20       1
    x[20]     c25       1
    x[20]     c55       1
    x[20]     c56       1
    x[20]     c69       1
    x[20]     c79       1
    x[20]     OBJ       1
    x[21]     c17       1
    x[21]     c21       1
    x[21]     c29       1
    x[21]     c31       1
    x[21]     c35       1
    x[21]     c44       1
    x[21]     c46       1
    x[21]     c69       1
    x[21]     c74       1
    x[21]     c78       1
    x[21]     OBJ       1
    x[22]     c5        1
    x[22]     c11       1
    x[22]     c12       1
    x[22]     c15       1
    x[22]     c22       1
    x[22]     c41       1
    x[22]     c42       1
    x[22]     c53       1
    x[22]     c66       1
    x[22]     c70       1
    x[22]     c73       1
    x[22]     OBJ       1
    x[23]     c23       1
    x[23]     c24       1
    x[23]     c34       1
    x[23]     c41       1
    x[23]     c47       1
    x[23]     c48       1
    x[23]     c68       1
    x[23]     c70       1
    x[23]     OBJ       1
    x[24]     c23       1
    x[24]     c24       1
    x[24]     c26       1
    x[24]     c29       1
    x[24]     c34       1
    x[24]     c39       1
    x[24]     c42       1
    x[24]     c52       1
    x[24]     c54       1
    x[24]     c57       1
    x[24]     c72       1
    x[24]     c78       1
    x[24]     OBJ       1
    x[25]     c4        1
    x[25]     c20       1
    x[25]     c25       1
    x[25]     c27       1
    x[25]     c29       1
    x[25]     c31       1
    x[25]     c46       1
    x[25]     c52       1
    x[25]     c56       1
    x[25]     c57       1
    x[25]     c80       1
    x[25]     c81       1
    x[25]     OBJ       1
    x[26]     c8        1
    x[26]     c12       1
    x[26]     c24       1
    x[26]     c26       1
    x[26]     c48       1
    x[26]     c77       1
    x[26]     c84       1
    x[26]     OBJ       1
    x[27]     c17       1
    x[27]     c25       1
    x[27]     c27       1
    x[27]     c28       1
    x[27]     c38       1
    x[27]     c41       1
    x[27]     c43       1
    x[27]     c50       1
    x[27]     c51       1
    x[27]     c63       1
    x[27]     c64       1
    x[27]     c68       1
    x[27]     c74       1
    x[27]     OBJ       1
    x[28]     c16       1
    x[28]     c27       1
    x[28]     c28       1
    x[28]     c35       1
    x[28]     c40       1
    x[28]     c46       1
    x[28]     c49       1
    x[28]     c55       1
    x[28]     c68       1
    x[28]     c85       1
    x[28]     OBJ       1
    x[29]     c15       1
    x[29]     c21       1
    x[29]     c24       1
    x[29]     c25       1
    x[29]     c29       1
    x[29]     c52       1
    x[29]     c58       1
    x[29]     c71       1
    x[29]     c83       1
    x[29]     OBJ       1
    x[30]     c6        1
    x[30]     c9        1
    x[30]     c11       1
    x[30]     c30       1
    x[30]     c32       1
    x[30]     c36       1
    x[30]     c41       1
    x[30]     c51       1
    x[30]     c56       1
    x[30]     c65       1
    x[30]     c74       1
    x[30]     c86       1
    x[30]     OBJ       1
    x[31]     c2        1
    x[31]     c6        1
    x[31]     c10       1
    x[31]     c14       1
    x[31]     c19       1
    x[31]     c21       1
    x[31]     c25       1
    x[31]     c31       1
    x[31]     c42       1
    x[31]     c60       1
    x[31]     c84       1
    x[31]     OBJ       1
    x[32]     c30       1
    x[32]     c32       1
    x[32]     c33       1
    x[32]     c39       1
    x[32]     c59       1
    x[32]     c63       1
    x[32]     c67       1
    x[32]     c82       1
    x[32]     OBJ       1
    x[33]     c32       1
    x[33]     c33       1
    x[33]     c39       1
    x[33]     c44       1
    x[33]     c53       1
    x[33]     c62       1
    x[33]     c72       1
    x[33]     OBJ       1
    x[34]     c23       1
    x[34]     c24       1
    x[34]     c34       1
    x[34]     c35       1
    x[34]     c40       1
    x[34]     c47       1
    x[34]     c64       1
    x[34]     c67       1
    x[34]     c83       1
    x[34]     c86       1
    x[34]     OBJ       1
    x[35]     c4        1
    x[35]     c21       1
    x[35]     c28       1
    x[35]     c34       1
    x[35]     c35       1
    x[35]     c53       1
    x[35]     c54       1
    x[35]     c58       1
    x[35]     c65       1
    x[35]     c71       1
    x[35]     c73       1
    x[35]     c74       1
    x[35]     c86       1
    x[35]     c87       1
    x[35]     OBJ       1
    x[36]     c19       1
    x[36]     c30       1
    x[36]     c36       1
    x[36]     c38       1
    x[36]     c51       1
    x[36]     c52       1
    x[36]     c72       1
    x[36]     c75       1
    x[36]     c79       1
    x[36]     OBJ       1
    x[37]     c17       1
    x[37]     c37       1
    x[37]     c56       1
    x[37]     c68       1
    x[37]     c77       1
    x[37]     c80       1
    x[37]     c82       1
    x[37]     c89       1
    x[37]     OBJ       1
    x[38]     c12       1
    x[38]     c17       1
    x[38]     c27       1
    x[38]     c36       1
    x[38]     c38       1
    x[38]     c39       1
    x[38]     c59       1
    x[38]     c66       1
    x[38]     c69       1
    x[38]     c82       1
    x[38]     c83       1
    x[38]     OBJ       1
    x[39]     c16       1
    x[39]     c24       1
    x[39]     c32       1
    x[39]     c33       1
    x[39]     c38       1
    x[39]     c39       1
    x[39]     c42       1
    x[39]     c45       1
    x[39]     c49       1
    x[39]     c54       1
    x[39]     c64       1
    x[39]     c74       1
    x[39]     c82       1
    x[39]     OBJ       1
    x[40]     c5        1
    x[40]     c11       1
    x[40]     c19       1
    x[40]     c28       1
    x[40]     c34       1
    x[40]     c40       1
    x[40]     c47       1
    x[40]     c50       1
    x[40]     c57       1
    x[40]     c66       1
    x[40]     c68       1
    x[40]     c75       1
    x[40]     c83       1
    x[40]     OBJ       1
    x[41]     c6        1
    x[41]     c16       1
    x[41]     c19       1
    x[41]     c22       1
    x[41]     c23       1
    x[41]     c27       1
    x[41]     c30       1
    x[41]     c41       1
    x[41]     c83       1
    x[41]     OBJ       1
    x[42]     c3        1
    x[42]     c17       1
    x[42]     c22       1
    x[42]     c24       1
    x[42]     c31       1
    x[42]     c39       1
    x[42]     c42       1
    x[42]     c50       1
    x[42]     c73       1
    x[42]     c82       1
    x[42]     c88       1
    x[42]     OBJ       1
    x[43]     c13       1
    x[43]     c15       1
    x[43]     c27       1
    x[43]     c43       1
    x[43]     c57       1
    x[43]     c58       1
    x[43]     c61       1
    x[43]     c64       1
    x[43]     c70       1
    x[43]     OBJ       1
    x[44]     c6        1
    x[44]     c8        1
    x[44]     c12       1
    x[44]     c21       1
    x[44]     c33       1
    x[44]     c44       1
    x[44]     c58       1
    x[44]     c90       1
    x[44]     OBJ       1
    x[45]     c13       1
    x[45]     c19       1
    x[45]     c39       1
    x[45]     c45       1
    x[45]     c55       1
    x[45]     c58       1
    x[45]     c59       1
    x[45]     c87       1
    x[45]     c89       1
    x[45]     OBJ       1
    x[46]     c8        1
    x[46]     c13       1
    x[46]     c21       1
    x[46]     c25       1
    x[46]     c28       1
    x[46]     c46       1
    x[46]     c57       1
    x[46]     c64       1
    x[46]     c69       1
    x[46]     c71       1
    x[46]     c72       1
    x[46]     c83       1
    x[46]     c84       1
    x[46]     c87       1
    x[46]     OBJ       1
    x[47]     c23       1
    x[47]     c34       1
    x[47]     c40       1
    x[47]     c47       1
    x[47]     c49       1
    x[47]     c66       1
    x[47]     c72       1
    x[47]     c76       1
    x[47]     c85       1
    x[47]     OBJ       1
    x[48]     c16       1
    x[48]     c23       1
    x[48]     c26       1
    x[48]     c48       1
    x[48]     c55       1
    x[48]     c56       1
    x[48]     c61       1
    x[48]     c87       1
    x[48]     c90       1
    x[48]     OBJ       1
    x[49]     c1        1
    x[49]     c5        1
    x[49]     c17       1
    x[49]     c28       1
    x[49]     c39       1
    x[49]     c47       1
    x[49]     c49       1
    x[49]     c61       1
    x[49]     c66       1
    x[49]     OBJ       1
    x[50]     c2        1
    x[50]     c4        1
    x[50]     c13       1
    x[50]     c27       1
    x[50]     c40       1
    x[50]     c42       1
    x[50]     c50       1
    x[50]     c57       1
    x[50]     c81       1
    x[50]     OBJ       1
    x[51]     c5        1
    x[51]     c14       1
    x[51]     c18       1
    x[51]     c27       1
    x[51]     c30       1
    x[51]     c36       1
    x[51]     c51       1
    x[51]     c64       1
    x[51]     c68       1
    x[51]     c74       1
    x[51]     OBJ       1
    x[52]     c8        1
    x[52]     c12       1
    x[52]     c24       1
    x[52]     c25       1
    x[52]     c29       1
    x[52]     c36       1
    x[52]     c52       1
    x[52]     c59       1
    x[52]     c69       1
    x[52]     c74       1
    x[52]     c87       1
    x[52]     OBJ       1
    x[53]     c22       1
    x[53]     c33       1
    x[53]     c35       1
    x[53]     c53       1
    x[53]     c59       1
    x[53]     c64       1
    x[53]     c76       1
    x[53]     c85       1
    x[53]     OBJ       1
    x[54]     c24       1
    x[54]     c35       1
    x[54]     c39       1
    x[54]     c54       1
    x[54]     c64       1
    x[54]     c84       1
    x[54]     c89       1
    x[54]     c90       1
    x[54]     OBJ       1
    x[55]     c10       1
    x[55]     c11       1
    x[55]     c20       1
    x[55]     c28       1
    x[55]     c45       1
    x[55]     c48       1
    x[55]     c55       1
    x[55]     c56       1
    x[55]     c64       1
    x[55]     c66       1
    x[55]     OBJ       1
    x[56]     c14       1
    x[56]     c20       1
    x[56]     c25       1
    x[56]     c30       1
    x[56]     c37       1
    x[56]     c48       1
    x[56]     c55       1
    x[56]     c56       1
    x[56]     c57       1
    x[56]     c59       1
    x[56]     c68       1
    x[56]     c90       1
    x[56]     OBJ       1
    x[57]     c12       1
    x[57]     c18       1
    x[57]     c24       1
    x[57]     c25       1
    x[57]     c40       1
    x[57]     c43       1
    x[57]     c46       1
    x[57]     c50       1
    x[57]     c56       1
    x[57]     c57       1
    x[57]     c59       1
    x[57]     c69       1
    x[57]     c74       1
    x[57]     c78       1
    x[57]     c85       1
    x[57]     OBJ       1
    x[58]     c29       1
    x[58]     c35       1
    x[58]     c43       1
    x[58]     c44       1
    x[58]     c45       1
    x[58]     c58       1
    x[58]     c84       1
    x[58]     c87       1
    x[58]     c89       1
    x[58]     OBJ       1
    x[59]     c5        1
    x[59]     c10       1
    x[59]     c32       1
    x[59]     c38       1
    x[59]     c45       1
    x[59]     c52       1
    x[59]     c53       1
    x[59]     c56       1
    x[59]     c57       1
    x[59]     c59       1
    x[59]     c62       1
    x[59]     c65       1
    x[59]     c66       1
    x[59]     c72       1
    x[59]     c78       1
    x[59]     OBJ       1
    x[60]     c4        1
    x[60]     c31       1
    x[60]     c60       1
    x[60]     c65       1
    x[60]     c72       1
    x[60]     c86       1
    x[60]     c90       1
    x[60]     OBJ       1
    x[61]     c4        1
    x[61]     c8        1
    x[61]     c11       1
    x[61]     c12       1
    x[61]     c15       1
    x[61]     c43       1
    x[61]     c48       1
    x[61]     c49       1
    x[61]     c61       1
    x[61]     c68       1
    x[61]     c85       1
    x[61]     OBJ       1
    x[62]     c4        1
    x[62]     c8        1
    x[62]     c33       1
    x[62]     c59       1
    x[62]     c62       1
    x[62]     c70       1
    x[62]     c76       1
    x[62]     c80       1
    x[62]     c81       1
    x[62]     c90       1
    x[62]     OBJ       1
    x[63]     c1        1
    x[63]     c5        1
    x[63]     c15       1
    x[63]     c27       1
    x[63]     c32       1
    x[63]     c63       1
    x[63]     c73       1
    x[63]     c76       1
    x[63]     c77       1
    x[63]     c79       1
    x[63]     c85       1
    x[63]     c89       1
    x[63]     OBJ       1
    x[64]     c4        1
    x[64]     c13       1
    x[64]     c18       1
    x[64]     c19       1
    x[64]     c27       1
    x[64]     c34       1
    x[64]     c39       1
    x[64]     c43       1
    x[64]     c46       1
    x[64]     c51       1
    x[64]     c53       1
    x[64]     c54       1
    x[64]     c55       1
    x[64]     c64       1
    x[64]     c77       1
    x[64]     OBJ       1
    x[65]     c13       1
    x[65]     c30       1
    x[65]     c35       1
    x[65]     c59       1
    x[65]     c60       1
    x[65]     c65       1
    x[65]     c70       1
    x[65]     c78       1
    x[65]     OBJ       1
    x[66]     c5        1
    x[66]     c8        1
    x[66]     c13       1
    x[66]     c22       1
    x[66]     c38       1
    x[66]     c40       1
    x[66]     c47       1
    x[66]     c49       1
    x[66]     c55       1
    x[66]     c59       1
    x[66]     c66       1
    x[66]     c70       1
    x[66]     c73       1
    x[66]     c74       1
    x[66]     c77       1
    x[66]     OBJ       1
    x[67]     c14       1
    x[67]     c16       1
    x[67]     c32       1
    x[67]     c34       1
    x[67]     c67       1
    x[67]     c82       1
    x[67]     c86       1
    x[67]     OBJ       1
    x[68]     c6        1
    x[68]     c10       1
    x[68]     c23       1
    x[68]     c27       1
    x[68]     c28       1
    x[68]     c37       1
    x[68]     c40       1
    x[68]     c51       1
    x[68]     c56       1
    x[68]     c61       1
    x[68]     c68       1
    x[68]     c85       1
    x[68]     OBJ       1
    x[69]     c10       1
    x[69]     c12       1
    x[69]     c20       1
    x[69]     c21       1
    x[69]     c38       1
    x[69]     c46       1
    x[69]     c52       1
    x[69]     c57       1
    x[69]     c69       1
    x[69]     c71       1
    x[69]     c75       1
    x[69]     OBJ       1
    x[70]     c8        1
    x[70]     c22       1
    x[70]     c23       1
    x[70]     c43       1
    x[70]     c62       1
    x[70]     c65       1
    x[70]     c66       1
    x[70]     c70       1
    x[70]     c85       1
    x[70]     OBJ       1
    x[71]     c4        1
    x[71]     c29       1
    x[71]     c35       1
    x[71]     c46       1
    x[71]     c69       1
    x[71]     c71       1
    x[71]     OBJ       1
    x[72]     c15       1
    x[72]     c18       1
    x[72]     c24       1
    x[72]     c33       1
    x[72]     c36       1
    x[72]     c46       1
    x[72]     c47       1
    x[72]     c59       1
    x[72]     c60       1
    x[72]     c72       1
    x[72]     c84       1
    x[72]     c85       1
    x[72]     OBJ       1
    x[73]     c11       1
    x[73]     c22       1
    x[73]     c35       1
    x[73]     c42       1
    x[73]     c63       1
    x[73]     c66       1
    x[73]     c73       1
    x[73]     c76       1
    x[73]     c83       1
    x[73]     OBJ       1
    x[74]     c2        1
    x[74]     c21       1
    x[74]     c27       1
    x[74]     c30       1
    x[74]     c35       1
    x[74]     c39       1
    x[74]     c51       1
    x[74]     c52       1
    x[74]     c57       1
    x[74]     c66       1
    x[74]     c74       1
    x[74]     c83       1
    x[74]     OBJ       1
    x[75]     c4        1
    x[75]     c36       1
    x[75]     c40       1
    x[75]     c69       1
    x[75]     c75       1
    x[75]     c85       1
    x[75]     OBJ       1
    x[76]     c1        1
    x[76]     c10       1
    x[76]     c18       1
    x[76]     c47       1
    x[76]     c53       1
    x[76]     c62       1
    x[76]     c63       1
    x[76]     c73       1
    x[76]     c76       1
    x[76]     OBJ       1
    x[77]     c17       1
    x[77]     c26       1
    x[77]     c37       1
    x[77]     c63       1
    x[77]     c64       1
    x[77]     c66       1
    x[77]     c77       1
    x[77]     c81       1
    x[77]     c83       1
    x[77]     c88       1
    x[77]     OBJ       1
    x[78]     c7        1
    x[78]     c11       1
    x[78]     c12       1
    x[78]     c15       1
    x[78]     c21       1
    x[78]     c24       1
    x[78]     c57       1
    x[78]     c59       1
    x[78]     c65       1
    x[78]     c78       1
    x[78]     c87       1
    x[78]     c88       1
    x[78]     OBJ       1
    x[79]     c8        1
    x[79]     c20       1
    x[79]     c36       1
    x[79]     c63       1
    x[79]     c79       1
    x[79]     OBJ       1
    x[80]     c6        1
    x[80]     c13       1
    x[80]     c15       1
    x[80]     c25       1
    x[80]     c37       1
    x[80]     c62       1
    x[80]     c80       1
    x[80]     c87       1
    x[80]     OBJ       1
    x[81]     c25       1
    x[81]     c50       1
    x[81]     c62       1
    x[81]     c77       1
    x[81]     c81       1
    x[81]     c83       1
    x[81]     OBJ       1
    x[82]     c2        1
    x[82]     c6        1
    x[82]     c32       1
    x[82]     c37       1
    x[82]     c38       1
    x[82]     c39       1
    x[82]     c42       1
    x[82]     c67       1
    x[82]     c82       1
    x[82]     c88       1
    x[82]     OBJ       1
    x[83]     c3        1
    x[83]     c29       1
    x[83]     c34       1
    x[83]     c38       1
    x[83]     c40       1
    x[83]     c41       1
    x[83]     c46       1
    x[83]     c73       1
    x[83]     c74       1
    x[83]     c77       1
    x[83]     c81       1
    x[83]     c83       1
    x[83]     c89       1
    x[83]     OBJ       1
    x[84]     c1        1
    x[84]     c12       1
    x[84]     c17       1
    x[84]     c26       1
    x[84]     c31       1
    x[84]     c46       1
    x[84]     c54       1
    x[84]     c58       1
    x[84]     c72       1
    x[84]     c84       1
    x[84]     c87       1
    x[84]     OBJ       1
    x[85]     c4        1
    x[85]     c15       1
    x[85]     c28       1
    x[85]     c47       1
    x[85]     c53       1
    x[85]     c57       1
    x[85]     c61       1
    x[85]     c63       1
    x[85]     c68       1
    x[85]     c70       1
    x[85]     c72       1
    x[85]     c75       1
    x[85]     c85       1
    x[85]     OBJ       1
    x[86]     c5        1
    x[86]     c30       1
    x[86]     c34       1
    x[86]     c35       1
    x[86]     c60       1
    x[86]     c67       1
    x[86]     c86       1
    x[86]     OBJ       1
    x[87]     c1        1
    x[87]     c35       1
    x[87]     c45       1
    x[87]     c46       1
    x[87]     c48       1
    x[87]     c52       1
    x[87]     c58       1
    x[87]     c78       1
    x[87]     c80       1
    x[87]     c84       1
    x[87]     c87       1
    x[87]     OBJ       1
    x[88]     c5        1
    x[88]     c14       1
    x[88]     c42       1
    x[88]     c77       1
    x[88]     c78       1
    x[88]     c82       1
    x[88]     c88       1
    x[88]     OBJ       1
    x[89]     c1        1
    x[89]     c3        1
    x[89]     c37       1
    x[89]     c45       1
    x[89]     c54       1
    x[89]     c58       1
    x[89]     c63       1
    x[89]     c83       1
    x[89]     c89       1
    x[89]     OBJ       1
    x[90]     c3        1
    x[90]     c44       1
    x[90]     c48       1
    x[90]     c54       1
    x[90]     c56       1
    x[90]     c60       1
    x[90]     c62       1
    x[90]     c90       1
    x[90]     OBJ       1
    MARKER    'MARKER'                 'INTEND'
RHS
    rhs       c1        1
    rhs       c2        1
    rhs       c3        1
    rhs       c4        1
    rhs       c5        1
    rhs       c6        1
    rhs       c7        1
    rhs       c8        1
    rhs       c9        1
    rhs       c10       1
    rhs       c11       1
    rhs       c12       1
    rhs       c13       1
    rhs       c14       1
    rhs       c15       1
    rhs       c16       1
    rhs       c17       1
    rhs       c18       1
    rhs       c19       1
    rhs       c20       1
    rhs       c21       1
    rhs       c22       1
    rhs       c23       1
    rhs       c24       1
    rhs       c25       1
    rhs       c26       1
    rhs       c27       1
    rhs       c28       1
    rhs       c29       1
    rhs       c30       1
    rhs       c31       1
    rhs       c32       1
    rhs       c33       1
    rhs       c34       1
    rhs       c35       1
    rhs       c36       1
    rhs       c37       1
    rhs       c38       1
    rhs       c39       1
    rhs       c40       1
    rhs       c41       1
    rhs       c42       1
    rhs       c43       1
    rhs       c44       1
    rhs       c45       1
    rhs       c46       1
    rhs       c47       1
    rhs       c48       1
    rhs       c49       1
    rhs       c50       1
    rhs       c51       1
    rhs       c52       1
    rhs       c53       1
    rhs       c54       1
    rhs       c55       1
    rhs       c56       1
    rhs       c57       1
    rhs       c58       1
    rhs       c59       1
    rhs       c60       1
    rhs       c61       1
    rhs       c62       1
    rhs       c63       1
    rhs       c64       1
    rhs       c65       1
    rhs       c66       1
    rhs       c67       1
    rhs       c68       1
    rhs       c69       1
    rhs       c70       1
    rhs       c71       1
    rhs       c72       1
    rhs       c73       1
    rhs       c74       1
    rhs       c75       1
    rhs       c76       1
    rhs       c77       1
    rhs       c78       1
    rhs       c79       1
    rhs       c80       1
    rhs       c81       1
    rhs       c82       1
    rhs       c83       1
    rhs       c84       1
    rhs       c85       1
    rhs       c86       1
    rhs       c87       1
    rhs       c88       1
    rhs       c89       1
    rhs       c90       1
RANGES
BOUNDS
 BV bounds    x[1]
 BV bounds    x[2]
 BV bounds    x[3]
 BV bounds    x[4]
 BV bounds    x[5]
 BV bounds    x[6]
 BV bounds    x[7]
 BV bounds    x[8]
 BV bounds    x[9]
 BV bounds    x[10]
 BV bounds    x[11]
 BV bounds    x[12]
 BV bounds    x[13]
 BV bounds    x[14]
 BV bounds    x[15]
 BV bounds    x[16]
 BV bounds    x[17]
 BV bounds    x[18]
 BV bounds    x[19]
 BV bounds    x[20]
 BV bounds    x[21]
 BV bounds    x[22]
 BV bounds    x[23]
 BV bounds    x[24]
 BV bounds    x[25]
 BV bounds    x[26]
 BV bounds    x[27]
 BV bounds    x[28]
 BV bounds    x[29]
 BV bounds    x[30]
 BV bounds    x[31]
 BV bounds    x[32]
 BV bounds    x[33]
 BV bounds    x[34]
 BV bounds    x[35]
 BV bounds    x[36]
 BV bounds    x[37]
 BV bounds    x[38]
 BV bounds    x[39]
 BV bounds    x[40]
 BV bounds    x[41]
 BV bounds    x[42]
 BV bounds    x[43]
 BV bounds    x[44]
 BV bounds    x[45]
 BV bounds    x[46]
 BV bounds    x[47]
 BV bounds    x[48]
 BV bounds    x[49]
 BV bounds    x[50]
 BV bounds    x[51]
 BV bounds    x[52]
 BV bounds    x[53]
 BV bounds    x[54]
 BV bounds    x[55]
 BV bounds    x[56]
 BV bounds    x[57]
 BV bounds    x[58]
 BV bounds    x[59]
 BV bounds    x[60]
 BV bounds    x[61]
 BV bounds    x[62]
 BV bounds    x[63]
 BV bounds    x[64]
 BV bounds    x[65]
 BV bounds    x[66]
 BV bounds    x[67]
 BV bounds    x[68]
 BV bounds    x[69]
 BV bounds    x[70]
 BV bounds    x[71]
 BV bounds    x[72]
 BV bounds    x[73]
 BV bounds    x[74]
 BV bounds    x[75]
 BV bounds    x[76]
 BV bounds    x[77]
 BV bounds    x[78]
 BV bounds    x[79]
 BV bounds    x[80]
 BV bounds    x[81]
 BV bounds    x[82]
 BV bounds    x[83]
 BV bounds    x[84]
 BV bounds    x[85]
 BV bounds    x[86]
 BV bounds    x[87]
 BV bounds    x[88]
 BV bounds    x[89]
 BV bounds    x[90]
ENDATA
